(set-info :smt-lib-version 2.6)
(set-logic UF)
(set-info :source |Benchmarks from the paper: "Extending Sledgehammer with SMT Solvers" by Jasmin Blanchette, Sascha Bohme, and Lawrence C. Paulson, CADE 2011.  Translated to SMT2 by Andrew Reynolds and Morgan Deters.|)
(set-info :category "industrial")
(set-info :status sat)
(declare-sort S1 0)
(declare-sort S2 0)
(declare-sort S3 0)
(declare-sort S4 0)
(declare-sort S5 0)
(declare-sort S6 0)
(declare-sort S7 0)
(declare-sort S8 0)
(declare-fun f1 () S1)
(declare-fun f2 () S1)
(declare-fun f3 (S3 S2) S4)
(declare-fun f4 () S3)
(declare-fun f5 (S2) S4)
(declare-fun f6 (S5 S2) S2)
(declare-fun f7 (S6 S2) S5)
(declare-fun f8 () S6)
(declare-fun f9 (S7 S8) S2)
(declare-fun f10 () S7)
(declare-fun f11 (S8) S8)
(declare-fun f12 (S8) S8)
(declare-fun f13 () S8)
(declare-fun f14 () S3)
(declare-fun f15 () S5)
(declare-fun f16 (S4 S4) S4)
(declare-fun f17 (S2 S3 S2) S4)
(declare-fun f18 () S6)
(declare-fun f19 () S2)
(declare-fun f20 () S6)
(declare-fun f21 () S2)
(declare-fun f22 (S4 S4) S4)
(declare-fun f23 (S4 S2) S4)
(declare-fun f24 (S4 S4) S4)
(declare-fun f25 () S4)
(declare-fun f26 (S2) S4)
(declare-fun f27 (S2 S3 S2) S4)
(declare-fun f28 (S2 S2) S1)
(assert (not (= f1 f2)))
(assert (forall ((?v0 S2)) (= (f3 f4 ?v0) (f5 (f6 (f7 f8 (f9 f10 (f11 (f12 f13)))) ?v0)))))
(assert (forall ((?v0 S2)) (= (f3 f14 ?v0) (f5 (f6 f15 (f6 (f7 f8 (f9 f10 (f11 (f12 f13)))) ?v0))))))
(assert (let ((?v_1 (f9 f10 (f11 (f12 f13))))) (let ((?v_0 (f6 (f7 f18 ?v_1) f19))) (let ((?v_2 (f6 (f7 f20 f21) ?v_0))) (let ((?v_3 (f23 (f24 f25 (f26 (f6 (f7 f8 ?v_1) ?v_0))) ?v_2))) (not (= (f16 (f17 ?v_0 f4 ?v_2) (f22 ?v_3 (f17 ?v_0 f14 ?v_2))) (f16 (f27 f19 f4 ?v_2) (f22 ?v_3 (f27 f19 f14 ?v_2))))))))))
(assert (not (= (f28 f21 (f6 (f7 f18 (f9 f10 (f11 (f12 f13)))) f19)) f1)))
(assert (let ((?v_0 (f9 f10 (f11 (f12 f13))))) (= (f28 f21 (f6 (f7 f8 ?v_0) (f6 (f7 f18 ?v_0) f19))) f1)))
(assert (let ((?v_0 (f6 (f7 f18 (f9 f10 (f11 (f12 f13)))) f19))) (= (f28 (f6 (f7 f20 f21) ?v_0) ?v_0) f1)))
(assert (let ((?v_0 (f6 (f7 f18 (f9 f10 (f11 (f12 f13)))) f19))) (= (f28 (f6 (f7 f20 f21) ?v_0) ?v_0) f1)))
(check-sat)
(exit)
